NAME : XML100_3371_10
DIMENSION : 101
NB_CLUSTERS : 3
CLUSTERING_ALG : KMeans
CLUSTERING_PARAMS : k(2)
CLUSTERS
1 0
2 3 8 10 18 19 20 29 31 33 38 44 45 51 56 59 60 62 73 80 86 90 96 99
3 1 2 4 5 6 7 9 11 12 13 14 15 16 17 21 22 23 24 25 26 27 28 30 32 34 35 36 37 39 40 41 42 43 46 47 48 49 50 52 53 54 55 57 58 61 63 64 65 66 67 68 69 70 71 72 74 75 76 77 78 79 81 82 83 84 85 87 88 89 91 92 93 94 95 97 98 100
EOF